c SaDiCaL SAT Solver
c Copyright (C) 2018 by Armin Biere JKU
c
c Version 00n 481e664a7ffa9a307d3a0dad517daf5dde1989ef
c Compiler Apple clang version 15.0.0 (clang-1500.3.9.4)
c Options gcc -Wall -O3 -DNDEBUG -DNLOG
c proof path 'tests/add8.prf'
c
c all options have default values
c
c parsing 'tests/add8.cnf'
c found 'p cnf 149 400' header
c parsed DIMACS in 0.00 seconds
c 
c
c   time      reduced redundant irredundant
c       space  restarts glue      variables
c           level conflicts size    remaining
c
c s 0.00 0.1 0.0 0 0 0 0 0.0 0.0 397 148 99%
c s 0.00 0.1 3.5 0 8 80 5 4.5 4.6 394 147 99%
c s 0.00 0.1 2.9 0 16 208 11 3.5 3.7 379 143 96%
c s 0.00 0.1 2.7 0 18 219 9 3.3 3.5 376 142 95%
c s 0.01 0.1 2.5 0 20 231 9 3.2 3.4 373 141 95%
c s 0.01 0.1 2.7 0 28 319 9 3.3 3.5 351 134 90%
c s 0.01 0.1 3.0 0 33 493 16 3.5 3.7 348 133 89%
c s 0.01 0.1 2.9 0 33 494 16 3.5 3.7 345 132 89%
c s 0.01 0.1 2.9 0 39 555 17 3.5 3.6 342 131 88%
c s 0.01 0.1 3.0 0 42 663 20 3.6 3.7 339 130 87%
c s 0.01 0.1 2.9 0 51 816 31 3.6 3.7 335 129 87%
c s 0.01 0.1 2.9 0 56 886 28 3.6 3.7 320 125 84%
c s 0.01 0.1 2.8 0 63 1006 20 3.5 3.6 278 111 74%
c s 0.01 0.1 2.7 0 66 1098 23 3.4 3.5 274 110 74%
c s 0.01 0.1 2.8 0 76 1228 21 3.4 3.5 246 98 66%
c s 0.02 0.1 2.8 0 89 1618 45 3.5 3.6 243 97 65%
c s 0.02 0.1 2.8 0 89 1619 35 3.5 3.6 213 83 56%
c s 0.02 0.1 2.8 0 89 1620 35 3.4 3.6 210 82 55%
c s 0.02 0.1 2.7 0 92 1830 33 3.3 3.6 169 70 47%
c s 0.02 0.1 2.7 0 92 1917 39 3.3 3.6 166 69 46%
c
c   time      reduced  redundant  irredundant
c       space   restarts     glue     variables
c           level  conflicts     size   remaining
c
c s 0.02 0.1 2.7 0 92 1918 38 3.2 3.5 165 68 46%
c s 0.02 0.1 2.6 0 92 1919 36 3.2 3.5 143 60 40%
c 0 0.02 0.1 2.6 0 92 1935 38 3.2 3.5 143 21 14%
c
s UNSATISFIABLE
c
c simplifications:            22          88  conflicts/simplification  100%
c reductions:                  0           0  conflicts/reduction       100%
c restarts:                   92          21  conflicts/restart         100%
c conflicts:                1935      107285  conflicts/sec              82%
c decisions:                 521       28887  decisions/sec              42%
c propagations:           125004         6.9  millions/sec               86%
c
c pure:                        0           0% of look-aheads
c look-ahead:                521         100% of outer decisions         42%
c pruned:                    132           7% of outer conflicts          6%
c generated reducts:         539          24% satisfiable
c average size:               96          32% of all clauses
c pruning failed:            407          76% per reduct
c filter checks:           11391          21% of outer satisfied clauses
c average filtered:          3.2           3% per reduct
c assumed literals:        12927         1.1  per filter check
c
c collected clauses:        0.01 MB       70% of allocated clauses        2%
c allocated clauses:        0.02 MB        7% of allocated memory         2%
c maximum heap:             0.08 MB        0% of resident set size       55%
c
c looking:                  0.00 sec       2% of process time
c filtering:                0.00 sec      28% of process time
c pruning:                  0.02 sec      83% of process time
c simplifying:              0.00 sec       1% of process time
c
c resident set size:     1232.00 MB
c total process time:       0.02 sec
